p cnf 280 2752
1 2 3 4 5 6 7 0
8 9 10 11 12 13 14 0
15 16 17 18 19 20 21 0
22 23 24 25 26 27 28 0
29 30 31 32 33 34 35 0
36 37 38 39 40 41 42 0
43 44 45 46 47 48 49 0
50 51 52 53 54 55 56 0
57 58 59 60 61 62 63 0
64 65 66 67 68 69 70 0
71 72 73 74 75 76 77 0
78 79 80 81 82 83 84 0
85 86 87 88 89 90 91 0
92 93 94 95 96 97 98 0
99 100 101 102 103 104 105 0
106 107 108 109 110 111 112 0
113 114 115 116 117 118 119 0
120 121 122 123 124 125 126 0
127 128 129 130 131 132 133 0
134 135 136 137 138 139 140 0
141 142 143 144 145 146 147 0
148 149 150 151 152 153 154 0
155 156 157 158 159 160 161 0
162 163 164 165 166 167 168 0
169 170 171 172 173 174 175 0
176 177 178 179 180 181 182 0
183 184 185 186 187 188 189 0
190 191 192 193 194 195 196 0
197 198 199 200 201 202 203 0
204 205 206 207 208 209 210 0
211 212 213 214 215 216 217 0
218 219 220 221 222 223 224 0
225 226 227 228 229 230 231 0
232 233 234 235 236 237 238 0
239 240 241 242 243 244 245 0
246 247 248 249 250 251 252 0
253 254 255 256 257 258 259 0
260 261 262 263 264 265 266 0
267 268 269 270 271 272 273 0
274 275 276 277 278 279 280 0
-1 -2 0
-1 -3 0
-1 -4 0
-1 -5 0
-1 -6 0
-1 -7 0
-2 -3 0
-2 -4 0
-2 -5 0
-2 -6 0
-2 -7 0
-3 -4 0
-3 -5 0
-3 -6 0
-3 -7 0
-4 -5 0
-4 -6 0
-4 -7 0
-5 -6 0
-5 -7 0
-6 -7 0
-8 -9 0
-8 -10 0
-8 -11 0
-8 -12 0
-8 -13 0
-8 -14 0
-9 -10 0
-9 -11 0
-9 -12 0
-9 -13 0
-9 -14 0
-10 -11 0
-10 -12 0
-10 -13 0
-10 -14 0
-11 -12 0
-11 -13 0
-11 -14 0
-12 -13 0
-12 -14 0
-13 -14 0
-15 -16 0
-15 -17 0
-15 -18 0
-15 -19 0
-15 -20 0
-15 -21 0
-16 -17 0
-16 -18 0
-16 -19 0
-16 -20 0
-16 -21 0
-17 -18 0
-17 -19 0
-17 -20 0
-17 -21 0
-18 -19 0
-18 -20 0
-18 -21 0
-19 -20 0
-19 -21 0
-20 -21 0
-22 -23 0
-22 -24 0
-22 -25 0
-22 -26 0
-22 -27 0
-22 -28 0
-23 -24 0
-23 -25 0
-23 -26 0
-23 -27 0
-23 -28 0
-24 -25 0
-24 -26 0
-24 -27 0
-24 -28 0
-25 -26 0
-25 -27 0
-25 -28 0
-26 -27 0
-26 -28 0
-27 -28 0
-29 -30 0
-29 -31 0
-29 -32 0
-29 -33 0
-29 -34 0
-29 -35 0
-30 -31 0
-30 -32 0
-30 -33 0
-30 -34 0
-30 -35 0
-31 -32 0
-31 -33 0
-31 -34 0
-31 -35 0
-32 -33 0
-32 -34 0
-32 -35 0
-33 -34 0
-33 -35 0
-34 -35 0
-36 -37 0
-36 -38 0
-36 -39 0
-36 -40 0
-36 -41 0
-36 -42 0
-37 -38 0
-37 -39 0
-37 -40 0
-37 -41 0
-37 -42 0
-38 -39 0
-38 -40 0
-38 -41 0
-38 -42 0
-39 -40 0
-39 -41 0
-39 -42 0
-40 -41 0
-40 -42 0
-41 -42 0
-43 -44 0
-43 -45 0
-43 -46 0
-43 -47 0
-43 -48 0
-43 -49 0
-44 -45 0
-44 -46 0
-44 -47 0
-44 -48 0
-44 -49 0
-45 -46 0
-45 -47 0
-45 -48 0
-45 -49 0
-46 -47 0
-46 -48 0
-46 -49 0
-47 -48 0
-47 -49 0
-48 -49 0
-50 -51 0
-50 -52 0
-50 -53 0
-50 -54 0
-50 -55 0
-50 -56 0
-51 -52 0
-51 -53 0
-51 -54 0
-51 -55 0
-51 -56 0
-52 -53 0
-52 -54 0
-52 -55 0
-52 -56 0
-53 -54 0
-53 -55 0
-53 -56 0
-54 -55 0
-54 -56 0
-55 -56 0
-57 -58 0
-57 -59 0
-57 -60 0
-57 -61 0
-57 -62 0
-57 -63 0
-58 -59 0
-58 -60 0
-58 -61 0
-58 -62 0
-58 -63 0
-59 -60 0
-59 -61 0
-59 -62 0
-59 -63 0
-60 -61 0
-60 -62 0
-60 -63 0
-61 -62 0
-61 -63 0
-62 -63 0
-64 -65 0
-64 -66 0
-64 -67 0
-64 -68 0
-64 -69 0
-64 -70 0
-65 -66 0
-65 -67 0
-65 -68 0
-65 -69 0
-65 -70 0
-66 -67 0
-66 -68 0
-66 -69 0
-66 -70 0
-67 -68 0
-67 -69 0
-67 -70 0
-68 -69 0
-68 -70 0
-69 -70 0
-71 -72 0
-71 -73 0
-71 -74 0
-71 -75 0
-71 -76 0
-71 -77 0
-72 -73 0
-72 -74 0
-72 -75 0
-72 -76 0
-72 -77 0
-73 -74 0
-73 -75 0
-73 -76 0
-73 -77 0
-74 -75 0
-74 -76 0
-74 -77 0
-75 -76 0
-75 -77 0
-76 -77 0
-78 -79 0
-78 -80 0
-78 -81 0
-78 -82 0
-78 -83 0
-78 -84 0
-79 -80 0
-79 -81 0
-79 -82 0
-79 -83 0
-79 -84 0
-80 -81 0
-80 -82 0
-80 -83 0
-80 -84 0
-81 -82 0
-81 -83 0
-81 -84 0
-82 -83 0
-82 -84 0
-83 -84 0
-85 -86 0
-85 -87 0
-85 -88 0
-85 -89 0
-85 -90 0
-85 -91 0
-86 -87 0
-86 -88 0
-86 -89 0
-86 -90 0
-86 -91 0
-87 -88 0
-87 -89 0
-87 -90 0
-87 -91 0
-88 -89 0
-88 -90 0
-88 -91 0
-89 -90 0
-89 -91 0
-90 -91 0
-92 -93 0
-92 -94 0
-92 -95 0
-92 -96 0
-92 -97 0
-92 -98 0
-93 -94 0
-93 -95 0
-93 -96 0
-93 -97 0
-93 -98 0
-94 -95 0
-94 -96 0
-94 -97 0
-94 -98 0
-95 -96 0
-95 -97 0
-95 -98 0
-96 -97 0
-96 -98 0
-97 -98 0
-99 -100 0
-99 -101 0
-99 -102 0
-99 -103 0
-99 -104 0
-99 -105 0
-100 -101 0
-100 -102 0
-100 -103 0
-100 -104 0
-100 -105 0
-101 -102 0
-101 -103 0
-101 -104 0
-101 -105 0
-102 -103 0
-102 -104 0
-102 -105 0
-103 -104 0
-103 -105 0
-104 -105 0
-106 -107 0
-106 -108 0
-106 -109 0
-106 -110 0
-106 -111 0
-106 -112 0
-107 -108 0
-107 -109 0
-107 -110 0
-107 -111 0
-107 -112 0
-108 -109 0
-108 -110 0
-108 -111 0
-108 -112 0
-109 -110 0
-109 -111 0
-109 -112 0
-110 -111 0
-110 -112 0
-111 -112 0
-113 -114 0
-113 -115 0
-113 -116 0
-113 -117 0
-113 -118 0
-113 -119 0
-114 -115 0
-114 -116 0
-114 -117 0
-114 -118 0
-114 -119 0
-115 -116 0
-115 -117 0
-115 -118 0
-115 -119 0
-116 -117 0
-116 -118 0
-116 -119 0
-117 -118 0
-117 -119 0
-118 -119 0
-120 -121 0
-120 -122 0
-120 -123 0
-120 -124 0
-120 -125 0
-120 -126 0
-121 -122 0
-121 -123 0
-121 -124 0
-121 -125 0
-121 -126 0
-122 -123 0
-122 -124 0
-122 -125 0
-122 -126 0
-123 -124 0
-123 -125 0
-123 -126 0
-124 -125 0
-124 -126 0
-125 -126 0
-127 -128 0
-127 -129 0
-127 -130 0
-127 -131 0
-127 -132 0
-127 -133 0
-128 -129 0
-128 -130 0
-128 -131 0
-128 -132 0
-128 -133 0
-129 -130 0
-129 -131 0
-129 -132 0
-129 -133 0
-130 -131 0
-130 -132 0
-130 -133 0
-131 -132 0
-131 -133 0
-132 -133 0
-134 -135 0
-134 -136 0
-134 -137 0
-134 -138 0
-134 -139 0
-134 -140 0
-135 -136 0
-135 -137 0
-135 -138 0
-135 -139 0
-135 -140 0
-136 -137 0
-136 -138 0
-136 -139 0
-136 -140 0
-137 -138 0
-137 -139 0
-137 -140 0
-138 -139 0
-138 -140 0
-139 -140 0
-141 -142 0
-141 -143 0
-141 -144 0
-141 -145 0
-141 -146 0
-141 -147 0
-142 -143 0
-142 -144 0
-142 -145 0
-142 -146 0
-142 -147 0
-143 -144 0
-143 -145 0
-143 -146 0
-143 -147 0
-144 -145 0
-144 -146 0
-144 -147 0
-145 -146 0
-145 -147 0
-146 -147 0
-148 -149 0
-148 -150 0
-148 -151 0
-148 -152 0
-148 -153 0
-148 -154 0
-149 -150 0
-149 -151 0
-149 -152 0
-149 -153 0
-149 -154 0
-150 -151 0
-150 -152 0
-150 -153 0
-150 -154 0
-151 -152 0
-151 -153 0
-151 -154 0
-152 -153 0
-152 -154 0
-153 -154 0
-155 -156 0
-155 -157 0
-155 -158 0
-155 -159 0
-155 -160 0
-155 -161 0
-156 -157 0
-156 -158 0
-156 -159 0
-156 -160 0
-156 -161 0
-157 -158 0
-157 -159 0
-157 -160 0
-157 -161 0
-158 -159 0
-158 -160 0
-158 -161 0
-159 -160 0
-159 -161 0
-160 -161 0
-162 -163 0
-162 -164 0
-162 -165 0
-162 -166 0
-162 -167 0
-162 -168 0
-163 -164 0
-163 -165 0
-163 -166 0
-163 -167 0
-163 -168 0
-164 -165 0
-164 -166 0
-164 -167 0
-164 -168 0
-165 -166 0
-165 -167 0
-165 -168 0
-166 -167 0
-166 -168 0
-167 -168 0
-169 -170 0
-169 -171 0
-169 -172 0
-169 -173 0
-169 -174 0
-169 -175 0
-170 -171 0
-170 -172 0
-170 -173 0
-170 -174 0
-170 -175 0
-171 -172 0
-171 -173 0
-171 -174 0
-171 -175 0
-172 -173 0
-172 -174 0
-172 -175 0
-173 -174 0
-173 -175 0
-174 -175 0
-176 -177 0
-176 -178 0
-176 -179 0
-176 -180 0
-176 -181 0
-176 -182 0
-177 -178 0
-177 -179 0
-177 -180 0
-177 -181 0
-177 -182 0
-178 -179 0
-178 -180 0
-178 -181 0
-178 -182 0
-179 -180 0
-179 -181 0
-179 -182 0
-180 -181 0
-180 -182 0
-181 -182 0
-183 -184 0
-183 -185 0
-183 -186 0
-183 -187 0
-183 -188 0
-183 -189 0
-184 -185 0
-184 -186 0
-184 -187 0
-184 -188 0
-184 -189 0
-185 -186 0
-185 -187 0
-185 -188 0
-185 -189 0
-186 -187 0
-186 -188 0
-186 -189 0
-187 -188 0
-187 -189 0
-188 -189 0
-190 -191 0
-190 -192 0
-190 -193 0
-190 -194 0
-190 -195 0
-190 -196 0
-191 -192 0
-191 -193 0
-191 -194 0
-191 -195 0
-191 -196 0
-192 -193 0
-192 -194 0
-192 -195 0
-192 -196 0
-193 -194 0
-193 -195 0
-193 -196 0
-194 -195 0
-194 -196 0
-195 -196 0
-197 -198 0
-197 -199 0
-197 -200 0
-197 -201 0
-197 -202 0
-197 -203 0
-198 -199 0
-198 -200 0
-198 -201 0
-198 -202 0
-198 -203 0
-199 -200 0
-199 -201 0
-199 -202 0
-199 -203 0
-200 -201 0
-200 -202 0
-200 -203 0
-201 -202 0
-201 -203 0
-202 -203 0
-204 -205 0
-204 -206 0
-204 -207 0
-204 -208 0
-204 -209 0
-204 -210 0
-205 -206 0
-205 -207 0
-205 -208 0
-205 -209 0
-205 -210 0
-206 -207 0
-206 -208 0
-206 -209 0
-206 -210 0
-207 -208 0
-207 -209 0
-207 -210 0
-208 -209 0
-208 -210 0
-209 -210 0
-211 -212 0
-211 -213 0
-211 -214 0
-211 -215 0
-211 -216 0
-211 -217 0
-212 -213 0
-212 -214 0
-212 -215 0
-212 -216 0
-212 -217 0
-213 -214 0
-213 -215 0
-213 -216 0
-213 -217 0
-214 -215 0
-214 -216 0
-214 -217 0
-215 -216 0
-215 -217 0
-216 -217 0
-218 -219 0
-218 -220 0
-218 -221 0
-218 -222 0
-218 -223 0
-218 -224 0
-219 -220 0
-219 -221 0
-219 -222 0
-219 -223 0
-219 -224 0
-220 -221 0
-220 -222 0
-220 -223 0
-220 -224 0
-221 -222 0
-221 -223 0
-221 -224 0
-222 -223 0
-222 -224 0
-223 -224 0
-225 -226 0
-225 -227 0
-225 -228 0
-225 -229 0
-225 -230 0
-225 -231 0
-226 -227 0
-226 -228 0
-226 -229 0
-226 -230 0
-226 -231 0
-227 -228 0
-227 -229 0
-227 -230 0
-227 -231 0
-228 -229 0
-228 -230 0
-228 -231 0
-229 -230 0
-229 -231 0
-230 -231 0
-232 -233 0
-232 -234 0
-232 -235 0
-232 -236 0
-232 -237 0
-232 -238 0
-233 -234 0
-233 -235 0
-233 -236 0
-233 -237 0
-233 -238 0
-234 -235 0
-234 -236 0
-234 -237 0
-234 -238 0
-235 -236 0
-235 -237 0
-235 -238 0
-236 -237 0
-236 -238 0
-237 -238 0
-239 -240 0
-239 -241 0
-239 -242 0
-239 -243 0
-239 -244 0
-239 -245 0
-240 -241 0
-240 -242 0
-240 -243 0
-240 -244 0
-240 -245 0
-241 -242 0
-241 -243 0
-241 -244 0
-241 -245 0
-242 -243 0
-242 -244 0
-242 -245 0
-243 -244 0
-243 -245 0
-244 -245 0
-246 -247 0
-246 -248 0
-246 -249 0
-246 -250 0
-246 -251 0
-246 -252 0
-247 -248 0
-247 -249 0
-247 -250 0
-247 -251 0
-247 -252 0
-248 -249 0
-248 -250 0
-248 -251 0
-248 -252 0
-249 -250 0
-249 -251 0
-249 -252 0
-250 -251 0
-250 -252 0
-251 -252 0
-253 -254 0
-253 -255 0
-253 -256 0
-253 -257 0
-253 -258 0
-253 -259 0
-254 -255 0
-254 -256 0
-254 -257 0
-254 -258 0
-254 -259 0
-255 -256 0
-255 -257 0
-255 -258 0
-255 -259 0
-256 -257 0
-256 -258 0
-256 -259 0
-257 -258 0
-257 -259 0
-258 -259 0
-260 -261 0
-260 -262 0
-260 -263 0
-260 -264 0
-260 -265 0
-260 -266 0
-261 -262 0
-261 -263 0
-261 -264 0
-261 -265 0
-261 -266 0
-262 -263 0
-262 -264 0
-262 -265 0
-262 -266 0
-263 -264 0
-263 -265 0
-263 -266 0
-264 -265 0
-264 -266 0
-265 -266 0
-267 -268 0
-267 -269 0
-267 -270 0
-267 -271 0
-267 -272 0
-267 -273 0
-268 -269 0
-268 -270 0
-268 -271 0
-268 -272 0
-268 -273 0
-269 -270 0
-269 -271 0
-269 -272 0
-269 -273 0
-270 -271 0
-270 -272 0
-270 -273 0
-271 -272 0
-271 -273 0
-272 -273 0
-274 -275 0
-274 -276 0
-274 -277 0
-274 -278 0
-274 -279 0
-274 -280 0
-275 -276 0
-275 -277 0
-275 -278 0
-275 -279 0
-275 -280 0
-276 -277 0
-276 -278 0
-276 -279 0
-276 -280 0
-277 -278 0
-277 -279 0
-277 -280 0
-278 -279 0
-278 -280 0
-279 -280 0
-7 -15 0
-5 -18 0
-1 -19 0
-3 -19 0
-1 -20 0
-4 -21 0
-5 -15 0
-5 -21 0
-1 -16 0
-5 -17 0
-6 -18 0
-1 -17 0
-3 -15 0
-2 -17 0
-4 -18 0
-2 -20 0
-4 -15 0
-6 -15 0
-1 -18 0
-7 -17 0
-6 -19 0
-5 -16 0
-2 -16 0
-6 -17 0
-5 -48 0
-1 -44 0
-2 -48 0
-7 -46 0
-6 -47 0
-7 -44 0
-3 -48 0
-2 -43 0
-5 -46 0
-4 -44 0
-2 -47 0
-1 -46 0
-6 -49 0
-4 -45 0
-5 -47 0
-3 -44 0
-6 -48 0
-1 -43 0
-1 -45 0
-6 -43 0
-4 -47 0
-3 -46 0
-7 -48 0
-2 -49 0
-2 -197 0
-3 -201 0
-5 -202 0
-5 -200 0
-4 -200 0
-5 -197 0
-4 -198 0
-3 -199 0
-2 -202 0
-4 -202 0
-4 -199 0
-5 -199 0
-7 -203 0
-2 -199 0
-3 -203 0
-7 -199 0
-3 -198 0
-7 -200 0
-6 -202 0
-3 -197 0
-6 -200 0
-7 -197 0
-2 -198 0
-2 -200 0
-1 -223 0
-4 -222 0
-2 -218 0
-2 -222 0
-6 -222 0
-5 -221 0
-5 -223 0
-3 -224 0
-4 -224 0
-3 -221 0
-6 -219 0
-3 -218 0
-3 -220 0
-3 -223 0
-5 -218 0
-1 -219 0
-1 -221 0
-7 -222 0
-7 -219 0
-7 -223 0
-6 -224 0
-5 -219 0
-7 -220 0
-2 -221 0
-7 -230 0
-6 -229 0
-7 -231 0
-3 -228 0
-5 -226 0
-1 -226 0
-4 -225 0
-1 -231 0
-7 -228 0
-2 -227 0
-4 -227 0
-5 -225 0
-3 -226 0
-7 -227 0
-4 -229 0
-6 -231 0
-6 -228 0
-7 -229 0
-6 -226 0
-4 -231 0
-2 -231 0
-2 -230 0
-4 -230 0
-7 -226 0
-5 -251 0
-1 -251 0
-4 -250 0
-2 -247 0
-5 -248 0
-3 -252 0
-5 -246 0
-7 -249 0
-2 -251 0
-2 -250 0
-7 -248 0
-2 -252 0
-5 -247 0
-7 -250 0
-3 -249 0
-1 -250 0
-3 -250 0
-7 -246 0
-3 -247 0
-7 -252 0
-7 -251 0
-1 -252 0
-4 -252 0
-6 -246 0
-8 -150 0
-14 -154 0
-13 -148 0
-12 -151 0
-8 -148 0
-12 -150 0
-14 -149 0
-8 -151 0
-8 -153 0
-13 -150 0
-10 -150 0
-8 -149 0
-13 -153 0
-13 -151 0
-10 -149 0
-11 -151 0
-13 -152 0
-11 -149 0
-9 -149 0
-9 -152 0
-11 -154 0
-14 -148 0
-8 -154 0
-11 -150 0
-15 -60 0
-16 -62 0
-18 -60 0
-16 -60 0
-21 -57 0
-17 -63 0
-19 -57 0
-17 -62 0
-21 -62 0
-18 -62 0
-20 -61 0
-20 -59 0
-21 -58 0
-20 -62 0
-19 -61 0
-16 -58 0
-18 -59 0
-19 -63 0
-19 -58 0
-19 -62 0
-17 -61 0
-19 -59 0
-20 -58 0
-19 -60 0
-16 -90 0
-19 -86 0
-17 -85 0
-17 -87 0
-15 -90 0
-18 -91 0
-21 -91 0
-21 -88 0
-18 -85 0
-17 -88 0
-17 -90 0
-15 -88 0
-18 -89 0
-20 -88 0
-15 -89 0
-19 -91 0
-15 -86 0
-19 -90 0
-15 -91 0
-18 -90 0
-20 -90 0
-21 -85 0
-17 -89 0
-20 -85 0
-18 -121 0
-21 -126 0
-15 -124 0
-15 -122 0
-15 -120 0
-20 -123 0
-18 -123 0
-21 -120 0
-15 -123 0
-18 -120 0
-20 -126 0
-18 -126 0
-18 -124 0
-21 -123 0
-21 -125 0
-17 -122 0
-16 -122 0
-20 -125 0
-17 -124 0
-16 -121 0
-20 -121 0
-16 -125 0
-19 -122 0
-20 -120 0
-20 -237 0
-16 -237 0
-20 -233 0
-18 -236 0
-16 -233 0
-16 -238 0
-21 -233 0
-20 -236 0
-15 -233 0
-20 -238 0
-17 -238 0
-17 -234 0
-15 -236 0
-19 -235 0
-18 -234 0
-15 -234 0
-18 -238 0
-19 -233 0
-18 -235 0
-21 -232 0
-18 -233 0
-16 -234 0
-19 -234 0
-19 -236 0
-27 -89 0
-25 -85 0
-28 -85 0
-27 -90 0
-25 -86 0
-28 -87 0
-22 -85 0
-25 -91 0
-26 -88 0
-22 -88 0
-22 -87 0
-24 -88 0
-24 -87 0
-27 -85 0
-28 -91 0
-22 -90 0
-28 -88 0
-24 -86 0
-25 -88 0
-27 -88 0
-26 -90 0
-25 -87 0
-27 -87 0
-23 -85 0
-22 -115 0
-23 -116 0
-26 -119 0
-25 -119 0
-23 -113 0
-26 -113 0
-25 -115 0
-28 -117 0
-28 -118 0
-22 -114 0
-23 -118 0
-25 -114 0
-24 -119 0
-23 -114 0
-24 -113 0
-22 -118 0
-23 -117 0
-24 -117 0
-26 -115 0
-25 -118 0
-22 -117 0
-27 -113 0
-26 -117 0
-24 -115 0
-25 -158 0
-26 -156 0
-22 -155 0
-28 -161 0
-24 -157 0
-24 -155 0
-22 -156 0
-22 -158 0
-28 -155 0
-26 -161 0
-25 -157 0
-27 -159 0
-27 -160 0
-22 -160 0
-25 -159 0
-26 -155 0
-26 -159 0
-28 -158 0
-26 -158 0
-26 -157 0
-27 -155 0
-24 -159 0
-23 -157 0
-28 -157 0
-27 -174 0
-26 -174 0
-27 -173 0
-22 -173 0
-22 -175 0
-25 -173 0
-24 -174 0
-26 -169 0
-26 -170 0
-23 -175 0
-27 -172 0
-25 -169 0
-28 -170 0
-27 -175 0
-27 -171 0
-25 -172 0
-25 -171 0
-25 -170 0
-25 -175 0
-24 -170 0
-24 -175 0
-22 -172 0
-25 -174 0
-26 -175 0
-23 -214 0
-23 -217 0
-26 -214 0
-25 -212 0
-27 -215 0
-26 -217 0
-27 -214 0
-24 -211 0
-22 -216 0
-27 -211 0
-22 -211 0
-24 -217 0
-24 -214 0
-25 -214 0
-25 -213 0
-23 -211 0
-28 -214 0
-26 -215 0
-26 -216 0
-22 -215 0
-28 -215 0
-27 -217 0
-28 -212 0
-22 -213 0
-28 -253 0
-24 -257 0
-28 -255 0
-26 -256 0
-25 -253 0
-23 -257 0
-27 -253 0
-28 -256 0
-24 -258 0
-27 -259 0
-26 -257 0
-22 -255 0
-27 -258 0
-23 -255 0
-26 -259 0
-27 -254 0
-28 -254 0
-25 -256 0
-22 -256 0
-25 -258 0
-25 -259 0
-24 -259 0
-26 -254 0
-22 -254 0
-29 -235 0
-29 -232 0
-33 -233 0
-32 -237 0
-35 -234 0
-35 -238 0
-32 -232 0
-33 -235 0
-29 -238 0
-32 -234 0
-29 -236 0
-30 -235 0
-34 -237 0
-34 -233 0
-35 -236 0
-35 -235 0
-35 -232 0
-30 -238 0
-32 -236 0
-33 -237 0
-31 -235 0
-34 -235 0
-30 -233 0
-33 -238 0
-31 -241 0
-31 -245 0
-31 -244 0
-30 -244 0
-32 -241 0
-30 -242 0
-29 -239 0
-29 -241 0
-31 -243 0
-35 -241 0
-33 -242 0
-30 -241 0
-30 -243 0
-32 -245 0
-35 -242 0
-29 -242 0
-33 -240 0
-32 -244 0
-32 -242 0
-33 -239 0
-33 -243 0
-35 -245 0
-32 -243 0
-32 -240 0
-35 -259 0
-35 -255 0
-29 -259 0
-29 -257 0
-32 -259 0
-34 -256 0
-29 -255 0
-35 -256 0
-34 -254 0
-35 -257 0
-33 -257 0
-32 -257 0
-33 -259 0
-30 -256 0
-30 -257 0
-31 -253 0
-32 -255 0
-32 -256 0
-33 -255 0
-35 -258 0
-34 -253 0
-30 -254 0
-30 -255 0
-33 -256 0
-39 -62 0
-36 -58 0
-40 -60 0
-39 -60 0
-36 -61 0
-38 -60 0
-37 -58 0
-39 -58 0
-42 -59 0
-41 -59 0
-41 -61 0
-37 -57 0
-36 -62 0
-41 -62 0
-40 -59 0
-36 -57 0
-39 -57 0
-40 -62 0
-37 -61 0
-42 -57 0
-38 -57 0
-38 -59 0
-41 -60 0
-42 -63 0
-40 -154 0
-40 -152 0
-41 -151 0
-37 -153 0
-37 -149 0
-36 -150 0
-41 -153 0
-37 -148 0
-38 -151 0
-40 -149 0
-39 -153 0
-41 -150 0
-39 -154 0
-37 -152 0
-36 -154 0
-40 -148 0
-36 -149 0
-37 -150 0
-38 -153 0
-37 -154 0
-42 -151 0
-39 -149 0
-39 -148 0
-40 -150 0
-39 -247 0
-36 -251 0
-40 -252 0
-42 -249 0
-41 -252 0
-39 -249 0
-38 -252 0
-37 -249 0
-37 -247 0
-38 -250 0
-36 -246 0
-40 -248 0
-37 -250 0
-36 -249 0
-39 -248 0
-40 -246 0
-42 -247 0
-40 -249 0
-39 -252 0
-41 -249 0
-41 -248 0
-42 -252 0
-36 -250 0
-40 -250 0
-40 -262 0
-40 -261 0
-42 -263 0
-39 -266 0
-40 -263 0
-41 -260 0
-41 -264 0
-36 -265 0
-39 -263 0
-39 -262 0
-36 -261 0
-37 -266 0
-37 -262 0
-36 -260 0
-42 -265 0
-42 -264 0
-42 -260 0
-38 -265 0
-41 -263 0
-37 -261 0
-40 -260 0
-38 -266 0
-41 -262 0
-38 -263 0
-49 -153 0
-48 -154 0
-46 -151 0
-44 -150 0
-46 -150 0
-49 -152 0
-48 -153 0
-43 -151 0
-47 -153 0
-45 -150 0
-48 -149 0
-43 -153 0
-47 -152 0
-47 -150 0
-49 -148 0
-43 -154 0
-47 -154 0
-45 -151 0
-44 -149 0
-45 -148 0
-45 -149 0
-43 -148 0
-45 -152 0
-47 -151 0
-48 -214 0
-49 -213 0
-49 -216 0
-45 -213 0
-49 -212 0
-46 -212 0
-49 -211 0
-48 -217 0
-43 -214 0
-49 -215 0
-44 -213 0
-46 -217 0
-49 -217 0
-46 -213 0
-49 -214 0
-44 -212 0
-47 -216 0
-45 -215 0
-46 -215 0
-43 -217 0
-45 -214 0
-44 -214 0
-46 -214 0
-43 -213 0
-47 -272 0
-43 -269 0
-45 -268 0
-44 -271 0
-49 -271 0
-48 -269 0
-47 -271 0
-45 -270 0
-44 -267 0
-49 -267 0
-47 -273 0
-43 -267 0
-48 -272 0
-45 -267 0
-48 -267 0
-43 -273 0
-49 -272 0
-47 -270 0
-44 -268 0
-46 -267 0
-43 -270 0
-47 -267 0
-48 -270 0
-45 -271 0
-61 -90 0
-59 -91 0
-58 -87 0
-61 -88 0
-61 -91 0
-63 -89 0
-62 -88 0
-63 -88 0
-58 -90 0
-59 -88 0
-60 -90 0
-60 -91 0
-62 -86 0
-58 -91 0
-63 -87 0
-63 -85 0
-60 -85 0
-63 -90 0
-58 -86 0
-62 -85 0
-58 -85 0
-59 -87 0
-60 -86 0
-61 -85 0
-58 -143 0
-59 -141 0
-57 -142 0
-60 -143 0
-57 -144 0
-61 -147 0
-62 -141 0
-63 -146 0
-62 -142 0
-60 -141 0
-62 -143 0
-58 -144 0
-63 -142 0
-58 -141 0
-59 -146 0
-63 -144 0
-60 -142 0
-61 -146 0
-62 -144 0
-63 -147 0
-63 -143 0
-59 -144 0
-63 -145 0
-61 -141 0
-63 -203 0
-61 -202 0
-58 -201 0
-62 -202 0
-61 -203 0
-62 -198 0
-60 -198 0
-57 -202 0
-58 -200 0
-59 -200 0
-58 -203 0
-60 -197 0
-61 -199 0
-63 -198 0
-57 -200 0
-63 -200 0
-59 -197 0
-57 -201 0
-60 -200 0
-63 -202 0
-57 -197 0
-60 -202 0
-59 -198 0
-58 -199 0
-60 -236 0
-58 -235 0
-59 -237 0
-61 -237 0
-63 -233 0
-60 -232 0
-59 -236 0
-58 -236 0
-59 -234 0
-62 -232 0
-62 -238 0
-63 -234 0
-61 -238 0
-62 -234 0
-60 -234 0
-61 -232 0
-59 -233 0
-62 -237 0
-57 -236 0
-62 -233 0
-61 -235 0
-63 -238 0
-58 -234 0
-63 -237 0
-68 -90 0
-70 -86 0
-70 -91 0
-69 -91 0
-65 -91 0
-66 -87 0
-64 -85 0
-65 -90 0
-68 -85 0
-66 -85 0
-70 -87 0
-67 -88 0
-66 -88 0
-67 -91 0
-64 -86 0
-65 -87 0
-67 -87 0
-64 -89 0
-70 -88 0
-69 -85 0
-69 -87 0
-64 -91 0
-67 -90 0
-68 -86 0
-67 -271 0
-67 -270 0
-67 -267 0
-67 -272 0
-70 -273 0
-70 -268 0
-66 -268 0
-65 -270 0
-70 -267 0
-67 -273 0
-68 -271 0
-66 -273 0
-66 -272 0
-66 -270 0
-66 -271 0
-69 -269 0
-64 -269 0
-69 -268 0
-70 -271 0
-64 -270 0
-65 -267 0
-66 -269 0
-66 -267 0
-65 -268 0
-77 -91 0
-71 -91 0
-71 -88 0
-72 -89 0
-71 -89 0
-73 -90 0
-73 -89 0
-73 -87 0
-74 -87 0
-76 -89 0
-75 -89 0
-74 -86 0
-73 -86 0
-74 -88 0
-76 -86 0
-74 -91 0
-77 -89 0
-75 -91 0
-77 -88 0
-72 -85 0
-72 -86 0
-75 -90 0
-74 -90 0
-76 -87 0
-72 -118 0
-72 -117 0
-77 -118 0
-75 -113 0
-74 -118 0
-76 -116 0
-74 -117 0
-73 -118 0
-75 -116 0
-71 -116 0
-76 -114 0
-74 -119 0
-76 -118 0
-74 -113 0
-75 -114 0
-71 -114 0
-74 -115 0
-76 -117 0
-73 -117 0
-72 -115 0
-71 -118 0
-73 -114 0
-76 -119 0
-71 -117 0
-73 -193 0
-76 -194 0
-77 -193 0
-76 -196 0
-74 -190 0
-73 -191 0
-74 -196 0
-73 -194 0
-75 -190 0
-75 -194 0
-75 -191 0
-73 -190 0
-75 -192 0
-74 -195 0
-77 -192 0
-76 -190 0
-74 -194 0
-71 -193 0
-76 -192 0
-75 -196 0
-71 -194 0
-77 -191 0
-76 -195 0
-71 -190 0
-71 -214 0
-77 -213 0
-73 -214 0
-71 -212 0
-76 -211 0
-71 -211 0
-73 -212 0
-75 -216 0
-72 -217 0
-72 -211 0
-77 -217 0
-75 -214 0
-72 -216 0
-71 -215 0
-73 -216 0
-77 -212 0
-73 -211 0
-74 -217 0
-73 -217 0
-73 -215 0
-76 -217 0
-72 -213 0
-75 -212 0
-76 -214 0
-77 -266 0
-76 -265 0
-71 -266 0
-73 -266 0
-74 -261 0
-77 -263 0
-72 -265 0
-72 -266 0
-73 -262 0
-71 -264 0
-76 -264 0
-74 -265 0
-73 -263 0
-75 -265 0
-71 -261 0
-75 -266 0
-74 -260 0
-76 -262 0
-77 -261 0
-73 -261 0
-77 -260 0
-74 -262 0
-75 -261 0
-77 -262 0
-81 -98 0
-81 -96 0
-79 -97 0
-82 -94 0
-80 -96 0
-78 -98 0
-81 -95 0
-82 -92 0
-78 -93 0
-81 -94 0
-79 -93 0
-79 -98 0
-79 -95 0
-78 -92 0
-84 -94 0
-80 -93 0
-83 -96 0
-80 -94 0
-80 -92 0
-84 -97 0
-84 -95 0
-78 -94 0
-80 -97 0
-79 -94 0
-78 -176 0
-78 -179 0
-79 -180 0
-79 -177 0
-78 -181 0
-81 -180 0
-81 -179 0
-80 -179 0
-80 -182 0
-83 -179 0
-82 -180 0
-80 -176 0
-80 -181 0
-83 -178 0
-84 -182 0
-80 -180 0
-82 -178 0
-79 -179 0
-81 -182 0
-83 -182 0
-79 -176 0
-82 -176 0
-84 -180 0
-79 -178 0
-79 -198 0
-78 -199 0
-79 -199 0
-84 -197 0
-79 -203 0
-80 -202 0
-83 -198 0
-80 -199 0
-83 -200 0
-79 -201 0
-78 -200 0
-80 -198 0
-80 -201 0
-79 -202 0
-78 -201 0
-81 -202 0
-78 -202 0
-81 -197 0
-84 -198 0
-80 -203 0
-83 -203 0
-84 -200 0
-83 -197 0
-82 -203 0
-91 -120 0
-89 -126 0
-86 -122 0
-86 -121 0
-88 -124 0
-91 -124 0
-86 -126 0
-86 -120 0
-89 -122 0
-90 -121 0
-91 -125 0
-86 -125 0
-85 -124 0
-87 -122 0
-87 -121 0
-90 -123 0
-88 -121 0
-85 -125 0
-89 -125 0
-88 -123 0
-91 -121 0
-88 -122 0
-85 -123 0
-89 -124 0
-90 -207 0
-89 -210 0
-86 -207 0
-90 -205 0
-89 -204 0
-87 -205 0
-85 -205 0
-90 -206 0
-91 -207 0
-90 -204 0
-89 -208 0
-85 -210 0
-87 -207 0
-86 -204 0
-87 -210 0
-86 -209 0
-88 -210 0
-88 -207 0
-88 -206 0
-86 -205 0
-87 -208 0
-91 -210 0
-88 -208 0
-91 -209 0
-85 -272 0
-89 -267 0
-85 -273 0
-85 -270 0
-86 -272 0
-88 -268 0
-90 -268 0
-86 -271 0
-91 -270 0
-89 -272 0
-86 -270 0
-88 -272 0
-91 -268 0
-85 -268 0
-87 -267 0
-86 -269 0
-90 -272 0
-89 -271 0
-87 -270 0
-87 -271 0
-91 -271 0
-87 -272 0
-86 -273 0
-86 -268 0
-92 -227 0
-96 -226 0
-95 -231 0
-97 -228 0
-94 -225 0
-92 -229 0
-94 -231 0
-98 -228 0
-98 -230 0
-93 -225 0
-97 -226 0
-92 -230 0
-94 -228 0
-92 -226 0
-93 -231 0
-95 -229 0
-96 -225 0
-96 -230 0
-93 -229 0
-96 -229 0
-94 -229 0
-97 -225 0
-93 -228 0
-98 -226 0
-98 -239 0
-93 -240 0
-93 -244 0
-94 -242 0
-92 -242 0
-92 -244 0
-97 -245 0
-97 -239 0
-96 -243 0
-95 -242 0
-94 -244 0
-92 -241 0
-96 -240 0
-94 -243 0
-93 -245 0
-97 -240 0
-98 -242 0
-95 -243 0
-93 -243 0
-94 -240 0
-94 -241 0
-96 -245 0
-95 -240 0
-92 -239 0
-95 -266 0
-95 -263 0
-95 -260 0
-93 -263 0
-96 -260 0
-93 -261 0
-93 -262 0
-96 -265 0
-92 -263 0
-98 -261 0
-97 -266 0
-95 -261 0
-97 -262 0
-92 -266 0
-92 -262 0
-93 -260 0
-92 -260 0
-96 -262 0
-92 -264 0
-97 -261 0
-98 -266 0
-92 -265 0
-98 -263 0
-92 -261 0
-102 -106 0
-103 -108 0
-105 -107 0
-103 -112 0
-101 -106 0
-100 -112 0
-102 -108 0
-103 -107 0
-102 -107 0
-99 -111 0
-100 -110 0
-105 -106 0
-105 -110 0
-104 -107 0
-99 -109 0
-103 -106 0
-101 -109 0
-102 -110 0
-99 -112 0
-100 -109 0
-99 -107 0
-99 -108 0
-103 -110 0
-100 -107 0
-103 -167 0
-99 -165 0
-105 -168 0
-100 -162 0
-104 -167 0
-103 -164 0
-99 -163 0
-104 -165 0
-104 -162 0
-100 -167 0
-99 -167 0
-101 -163 0
-103 -165 0
-105 -162 0
-104 -166 0
-103 -163 0
-99 -166 0
-100 -165 0
-102 -164 0
-102 -167 0
-99 -162 0
-103 -162 0
-102 -168 0
-101 -162 0
-103 -197 0
-100 -201 0
-100 -203 0
-102 -201 0
-103 -200 0
-100 -199 0
-102 -202 0
-99 -203 0
-99 -202 0
-105 -203 0
-103 -201 0
-100 -197 0
-105 -198 0
-102 -198 0
-99 -197 0
-102 -199 0
-104 -201 0
-103 -202 0
-101 -202 0
-103 -198 0
-101 -200 0
-105 -200 0
-101 -201 0
-99 -199 0
-100 -211 0
-100 -212 0
-101 -212 0
-101 -211 0
-103 -217 0
-102 -212 0
-105 -213 0
-104 -215 0
-105 -212 0
-102 -213 0
-101 -216 0
-105 -211 0
-103 -216 0
-99 -212 0
-99 -214 0
-104 -214 0
-104 -216 0
-103 -213 0
-104 -213 0
-103 -214 0
-104 -211 0
-100 -213 0
-100 -217 0
-101 -217 0
-107 -219 0
-106 -220 0
-109 -220 0
-106 -219 0
-107 -220 0
-108 -219 0
-112 -219 0
-108 -223 0
-107 -222 0
-112 -220 0
-106 -221 0
-107 -224 0
-111 -221 0
-111 -222 0
-109 -219 0
-109 -222 0
-109 -224 0
-111 -224 0
-106 -218 0
-110 -224 0
-112 -224 0
-109 -218 0
-110 -222 0
-110 -218 0
-117 -234 0
-113 -232 0
-118 -234 0
-113 -238 0
-114 -235 0
-117 -237 0
-119 -235 0
-116 -236 0
-115 -236 0
-114 -238 0
-113 -236 0
-119 -234 0
-116 -233 0
-115 -234 0
-114 -233 0
-117 -235 0
-114 -236 0
-116 -235 0
-118 -237 0
-117 -236 0
-114 -237 0
-115 -232 0
-116 -234 0
-117 -232 0
-114 -268 0
-117 -272 0
-114 -272 0
-115 -268 0
-117 -271 0
-116 -271 0
-113 -267 0
-117 -270 0
-118 -271 0
-115 -270 0
-116 -268 0
-113 -273 0
-114 -271 0
-115 -267 0
-119 -268 0
-113 -272 0
-114 -267 0
-113 -271 0
-118 -270 0
-116 -269 0
-119 -273 0
-115 -269 0
-113 -268 0
-115 -272 0
-124 -168 0
-120 -162 0
-122 -162 0
-122 -164 0
-123 -168 0
-124 -167 0
-123 -165 0
-125 -166 0
-126 -164 0
-121 -163 0
-122 -163 0
-123 -163 0
-124 -166 0
-120 -164 0
-121 -167 0
-123 -164 0
-120 -166 0
-124 -162 0
-120 -163 0
-122 -168 0
-126 -168 0
-126 -167 0
-122 -167 0
-121 -164 0
-123 -240 0
-120 -240 0
-121 -244 0
-126 -244 0
-121 -242 0
-125 -245 0
-121 -240 0
-120 -241 0
-120 -242 0
-124 -240 0
-121 -239 0
-125 -239 0
-123 -239 0
-125 -244 0
-123 -243 0
-124 -242 0
-124 -241 0
-122 -241 0
-124 -243 0
-120 -239 0
-122 -240 0
-122 -244 0
-123 -242 0
-125 -242 0
-122 -264 0
-123 -266 0
-121 -262 0
-126 -263 0
-121 -266 0
-125 -262 0
-125 -266 0
-120 -260 0
-124 -266 0
-125 -264 0
-124 -260 0
-121 -265 0
-122 -262 0
-120 -266 0
-120 -261 0
-123 -262 0
-126 -264 0
-121 -263 0
-126 -266 0
-126 -265 0
-120 -265 0
-122 -261 0
-124 -264 0
-120 -262 0
-120 -273 0
-123 -271 0
-124 -269 0
-126 -273 0
-120 -268 0
-126 -270 0
-120 -270 0
-122 -269 0
-121 -269 0
-126 -268 0
-123 -270 0
-122 -268 0
-121 -272 0
-123 -268 0
-124 -272 0
-123 -272 0
-120 -269 0
-123 -267 0
-123 -273 0
-126 -272 0
-125 -272 0
-121 -268 0
-125 -271 0
-122 -271 0
-122 -277 0
-122 -278 0
-121 -278 0
-124 -280 0
-121 -277 0
-122 -275 0
-120 -276 0
-123 -277 0
-124 -275 0
-123 -280 0
-126 -280 0
-125 -280 0
-124 -278 0
-122 -280 0
-126 -279 0
-121 -279 0
-123 -279 0
-126 -275 0
-121 -276 0
-122 -279 0
-122 -276 0
-121 -275 0
-125 -278 0
-123 -275 0
-129 -157 0
-133 -155 0
-131 -161 0
-132 -160 0
-128 -156 0
-127 -158 0
-130 -157 0
-130 -160 0
-131 -160 0
-133 -160 0
-133 -157 0
-132 -159 0
-133 -159 0
-128 -161 0
-130 -156 0
-128 -159 0
-129 -156 0
-133 -156 0
-130 -155 0
-132 -158 0
-129 -159 0
-131 -155 0
-127 -156 0
-127 -157 0
-142 -179 0
-143 -179 0
-144 -180 0
-146 -181 0
-141 -177 0
-147 -182 0
-142 -180 0
-141 -176 0
-142 -176 0
-143 -176 0
-146 -176 0
-143 -182 0
-141 -179 0
-146 -179 0
-147 -181 0
-143 -178 0
-142 -178 0
-141 -182 0
-143 -177 0
-147 -178 0
-142 -182 0
-141 -178 0
-145 -181 0
-144 -178 0
-148 -171 0
-150 -174 0
-153 -175 0
-151 -173 0
-153 -174 0
-149 -175 0
-151 -169 0
-153 -169 0
-150 -170 0
-152 -172 0
-149 -169 0
-152 -170 0
-148 -173 0
-154 -174 0
-150 -175 0
-150 -172 0
-152 -174 0
-151 -174 0
-153 -171 0
-152 -175 0
-154 -171 0
-150 -169 0
-149 -171 0
-154 -172 0
-150 -210 0
-151 -210 0
-151 -207 0
-150 -208 0
-154 -206 0
-152 -204 0
-150 -204 0
-153 -209 0
-148 -207 0
-154 -204 0
-151 -205 0
-153 -204 0
-151 -209 0
-153 -205 0
-148 -205 0
-148 -206 0
-153 -210 0
-148 -208 0
-154 -209 0
-149 -204 0
-148 -210 0
-152 -205 0
-153 -208 0
-150 -206 0
-148 -230 0
-148 -226 0
-150 -231 0
-148 -231 0
-152 -227 0
-154 -231 0
-153 -226 0
-154 -229 0
-154 -228 0
-148 -228 0
-153 -227 0
-152 -228 0
-149 -231 0
-148 -229 0
-154 -226 0
-152 -225 0
-152 -226 0
-152 -230 0
-148 -225 0
-151 -230 0
-150 -227 0
-151 -227 0
-153 -228 0
-154 -230 0
-161 -167 0
-157 -166 0
-159 -167 0
-157 -165 0
-158 -168 0
-158 -166 0
-157 -164 0
-158 -163 0
-156 -167 0
-156 -164 0
-155 -165 0
-155 -162 0
-161 -164 0
-156 -166 0
-158 -164 0
-160 -166 0
-159 -168 0
-159 -164 0
-159 -162 0
-157 -162 0
-160 -165 0
-161 -168 0
-159 -166 0
-155 -166 0
-155 -255 0
-161 -256 0
-159 -258 0
-160 -253 0
-156 -255 0
-160 -258 0
-158 -259 0
-155 -253 0
-161 -255 0
-158 -253 0
-161 -258 0
-161 -259 0
-159 -256 0
-158 -258 0
-157 -253 0
-160 -255 0
-161 -254 0
-158 -257 0
-156 -254 0
-157 -257 0
-161 -253 0
-155 -254 0
-157 -254 0
-156 -256 0
-164 -173 0
-168 -175 0
-164 -175 0
-166 -172 0
-166 -174 0
-167 -171 0
-168 -172 0
-163 -171 0
-168 -173 0
-165 -169 0
-166 -171 0
-164 -169 0
-168 -169 0
-162 -171 0
-162 -170 0
-162 -174 0
-164 -174 0
-168 -171 0
-167 -173 0
-167 -169 0
-168 -170 0
-165 -175 0
-163 -175 0
-162 -172 0
-175 -177 0
-175 -178 0
-169 -176 0
-171 -179 0
-170 -181 0
-174 -179 0
-174 -176 0
-171 -180 0
-173 -179 0
-172 -178 0
-174 -177 0
-170 -176 0
-171 -176 0
-170 -180 0
-170 -177 0
-174 -178 0
-172 -181 0
-172 -182 0
-169 -177 0
-170 -179 0
-175 -182 0
-169 -179 0
-173 -176 0
-173 -178 0
-173 -218 0
-175 -224 0
-174 -221 0
-171 -222 0
-173 -220 0
-172 -218 0
-169 -220 0
-175 -220 0
-174 -224 0
-171 -224 0
-174 -218 0
-175 -219 0
-171 -220 0
-172 -222 0
-171 -219 0
-174 -223 0
-170 -224 0
-171 -221 0
-169 -223 0
-170 -221 0
-169 -224 0
-174 -222 0
-172 -224 0
-173 -221 0
-171 -247 0
-174 -246 0
-175 -246 0
-172 -246 0
-170 -252 0
-174 -252 0
-170 -247 0
-172 -252 0
-175 -247 0
-175 -248 0
-173 -250 0
-173 -252 0
-174 -247 0
-172 -250 0
-174 -249 0
-175 -249 0
-170 -246 0
-169 -246 0
-169 -248 0
-173 -246 0
-169 -250 0
-173 -249 0
-169 -247 0
-173 -251 0
-172 -270 0
-174 -267 0
-171 -270 0
-174 -271 0
-174 -273 0
-175 -271 0
-171 -269 0
-173 -270 0
-172 -269 0
-169 -271 0
-175 -273 0
-169 -268 0
-169 -270 0
-175 -269 0
-173 -268 0
-173 -269 0
-172 -267 0
-169 -267 0
-174 -272 0
-171 -267 0
-170 -267 0
-169 -269 0
-169 -273 0
-171 -271 0
-178 -189 0
-177 -188 0
-178 -185 0
-180 -188 0
-177 -185 0
-178 -184 0
-177 -183 0
-179 -183 0
-176 -183 0
-180 -187 0
-176 -188 0
-179 -185 0
-181 -185 0
-182 -189 0
-180 -189 0
-179 -184 0
-181 -186 0
-179 -188 0
-178 -187 0
-177 -189 0
-176 -185 0
-180 -185 0
-176 -189 0
-176 -186 0
-198 -224 0
-200 -221 0
-203 -220 0
-203 -218 0
-201 -220 0
-198 -223 0
-201 -223 0
-197 -218 0
-201 -219 0
-202 -222 0
-199 -223 0
-202 -220 0
-201 -218 0
-197 -220 0
-197 -223 0
-198 -219 0
-197 -224 0
-199 -219 0
-201 -222 0
-202 -221 0
-198 -222 0
-197 -222 0
-197 -221 0
-202 -223 0
-207 -256 0
-204 -257 0
-204 -256 0
-210 -255 0
-209 -258 0
-204 -253 0
-205 -254 0
-206 -253 0
-206 -256 0
-209 -259 0
-210 -254 0
-209 -255 0
-208 -255 0
-210 -258 0
-209 -253 0
-210 -259 0
-207 -258 0
-208 -257 0
-207 -257 0
-205 -256 0
-204 -254 0
-209 -256 0
-206 -258 0
-207 -259 0
-212 -276 0
-216 -279 0
-217 -280 0
-216 -275 0
-211 -277 0
-212 -278 0
-215 -280 0
-211 -279 0
-213 -276 0
-211 -275 0
-215 -274 0
-213 -280 0
-212 -279 0
-214 -279 0
-214 -278 0
-216 -274 0
-214 -276 0
-212 -277 0
-212 -280 0
-215 -277 0
-217 -279 0
-216 -277 0
-217 -277 0
-216 -276 0
-243 -266 0
-239 -261 0
-239 -265 0
-240 -263 0
-242 -261 0
-245 -262 0
-240 -262 0
-244 -265 0
-242 -265 0
-244 -262 0
-245 -266 0
-243 -261 0
-245 -261 0
-239 -262 0
-242 -266 0
-243 -263 0
-244 -266 0
-241 -266 0
-244 -264 0
-241 -260 0
-242 -262 0
-239 -266 0
-245 -265 0
-240 -265 0
-259 -268 0
-253 -268 0
-257 -273 0
-256 -268 0
-257 -269 0
-253 -269 0
-254 -270 0
-258 -272 0
-259 -270 0
-254 -269 0
-258 -270 0
-254 -271 0
-258 -269 0
-258 -268 0
-255 -270 0
-254 -268 0
-255 -269 0
-257 -270 0
-255 -272 0
-257 -271 0
-257 -268 0
-259 -272 0
-254 -273 0
-259 -269 0
-258 -279 0
-256 -275 0
-257 -277 0
-258 -280 0
-255 -274 0
-254 -276 0
-255 -280 0
-255 -276 0
-256 -279 0
-256 -280 0
-257 -278 0
-257 -276 0
-255 -277 0
-256 -276 0
-259 -275 0
-253 -280 0
-254 -279 0
-259 -276 0
-258 -277 0
-257 -280 0
-253 -276 0
-256 -274 0
-253 -279 0
-256 -277 0
